p cnf 108 333
c t mc
-4 2 0
-4 -3 0
-2 3 4 0
1 -4 -5 0
-1 4 -5 0
1 4 5 0
-1 -4 5 0
8 6 0
8 -7 0
-6 7 -8 0
10 -11 -12 0
-10 11 -12 0
10 11 12 0
-10 -11 12 0
-13 9 0
-13 12 0
-9 -12 13 0
14 -8 0
14 -13 0
8 13 -14 0
-15 8 -16 0
15 -8 -16 0
-15 -8 16 0
15 8 16 0
16 6 -17 0
-16 -6 -17 0
16 -6 17 0
-16 6 17 0
-18 -10 0
-18 6 0
10 -6 18 0
-19 18 0
-19 -16 0
-18 16 19 0
21 11 0
21 20 0
-11 -20 -21 0
22 -19 0
22 -21 0
19 21 -22 0
-23 -22 0
-23 -19 0
22 19 23 0
24 -17 0
24 23 0
17 -23 -24 0
26 -25 0
26 -15 0
25 15 -26 0
-18 -26 -27 0
18 26 -27 0
-18 26 27 0
18 -26 27 0
29 27 0
29 28 0
-27 -28 -29 0
-30 -24 0
-30 29 0
24 -29 30 0
-31 -1 0
-31 11 0
1 -11 31 0
30 31 -32 0
-30 -31 -32 0
30 -31 32 0
-30 31 32 0
-33 -14 0
-33 32 0
14 -32 33 0
36 -34 0
36 -35 0
34 35 -36 0
38 -36 0
38 37 0
36 -37 -38 0
39 -38 0
39 -25 0
38 25 -39 0
41 -40 0
41 25 0
40 -25 -41 0
13 41 -42 0
-13 -41 -42 0
13 -41 42 0
-13 41 42 0
45 -43 0
45 44 0
43 -44 -45 0
46 47 0
-46 47 0
48 -47 0
48 -8 0
47 8 -48 0
-49 45 0
-49 -48 0
-45 48 49 0
-50 21 0
-50 -18 0
-21 18 50 0
-50 21 -51 0
50 -21 -51 0
-50 -21 51 0
50 21 51 0
-52 10 0
-52 10 0
-10 52 0
53 -51 0
53 52 0
51 -52 -53 0
6 34 -54 0
-6 -34 -54 0
6 -34 54 0
-6 34 54 0
15 -43 -55 0
-15 43 -55 0
15 43 55 0
-15 -43 55 0
56 55 0
56 -1 0
-55 1 -56 0
54 -56 -57 0
-54 56 -57 0
54 56 57 0
-54 -56 57 0
58 53 0
58 -57 0
-53 57 -58 0
-36 -15 -59 0
36 15 -59 0
-36 15 59 0
36 -15 59 0
60 -26 0
60 -59 0
26 59 -60 0
47 60 -61 0
-47 -60 -61 0
47 -60 61 0
-47 60 61 0
-62 58 0
-62 -61 0
-58 61 62 0
63 -49 0
63 -62 0
49 62 -63 0
64 42 0
64 -63 0
-42 63 -64 0
65 -18 0
65 11 0
18 -11 -65 0
66 3 0
66 -3 0
-67 65 0
-67 -66 0
-65 66 67 0
-11 -34 -68 0
11 34 -68 0
-11 34 68 0
11 -34 68 0
-69 -68 0
-69 40 0
68 -40 69 0
-70 34 0
-70 34 0
-34 70 0
-71 -18 0
-71 70 0
18 -70 71 0
72 69 0
72 71 0
-69 -71 -72 0
-74 73 0
-74 -8 0
-73 8 74 0
75 74 0
75 -11 0
-74 11 -75 0
76 72 0
76 75 0
-72 -75 -76 0
-77 44 0
-77 -21 0
-44 21 77 0
-13 -6 -78 0
13 6 -78 0
-13 6 78 0
13 -6 78 0
-79 77 0
-79 -78 0
-77 78 79 0
-80 -27 0
-80 -7 0
27 7 80 0
-80 -12 -81 0
80 12 -81 0
-80 12 81 0
80 -12 81 0
-82 44 0
-82 -81 0
-44 81 82 0
83 79 0
83 82 0
-79 -82 -83 0
76 83 -84 0
-76 -83 -84 0
76 -83 84 0
-76 83 84 0
85 -67 0
85 84 0
67 -84 -85 0
-64 -85 -86 0
64 85 -86 0
-64 85 86 0
64 -85 86 0
-87 54 0
-87 -20 0
-54 20 87 0
88 87 0
88 47 0
-87 -47 -88 0
36 -21 -89 0
-36 21 -89 0
36 21 89 0
-36 -21 89 0
90 88 0
90 -89 0
-88 89 -90 0
-91 -50 0
-91 -1 0
50 1 91 0
-92 -90 0
-92 91 0
90 -91 92 0
93 18 0
93 44 0
-18 -44 -93 0
94 59 0
94 93 0
-59 -93 -94 0
95 34 0
95 -54 0
-34 54 -95 0
-96 95 0
-96 38 0
-95 -38 96 0
-97 -70 0
-97 -55 0
70 55 97 0
-96 -97 -98 0
96 97 -98 0
-96 97 98 0
96 -97 98 0
94 -98 -99 0
-94 98 -99 0
94 98 99 0
-94 -98 99 0
-92 99 -100 0
92 -99 -100 0
-92 -99 100 0
92 99 100 0
101 2 0
101 -2 0
-102 -40 0
-102 -77 0
40 77 102 0
103 101 0
103 -102 0
-101 102 -103 0
-100 -103 -104 0
100 103 -104 0
-100 103 104 0
100 -103 104 0
-105 86 0
-105 104 0
-86 -104 105 0
-106 -39 0
-106 -105 0
39 105 106 0
-33 106 -107 0
33 -106 -107 0
-33 -106 107 0
33 106 107 0
5 -107 -108 0
-5 107 -108 0
5 107 108 0
-5 -107 108 0
-38 -5 -11 0
-71 11 -8 34 0
90 -105 -84 -54 37 26 -35 102 -53 0
5 46 6 -78 -93 -57 28 -39 0
94 74 -51 -53 0
-82 60 -7 -68 44 89 0
99 83 93 -91 -98 -29 46 76 -108 0
-76 83 14 -35 0
87 -99 -82 0
-34 -40 25 107 56 65 105 0
-21 -78 -77 -99 71 -42 0
-42 38 11 -74 51 78 80 0
-104 11 -21 8 72 0
8 -51 -62 65 87 0
26 1 -55 -70 -21 -44 8 47 0
12 77 9 -29 23 6 0
-72 15 22 0
-90 -79 -78 92 30 91 75 9 -36 0
91 76 -100 23 21 0
-86 -25 -73 0
8 32 -43 -29 86 -80 5 0
37 38 98 -50 -34 -4 0
-84 16 24 -42 -25 0
-6 -82 31 -66 -88 52 -94 28 101 97 0
-45 10 -11 -68 28 -100 -26 -29 -44 0
28 85 -26 7 0
-69 -77 -95 -83 -56 25 -26 -86 24 30 0
-105 70 -23 99 106 -103 96 0
-73 41 84 29 -8 0
19 108 -72 -46 69 0
24 -105 106 -97 -21 53 -38 10 0
-70 -81 67 27 0
-75 5 81 0
33 -80 67 -41 0
-1 -3 93 79 -83 -87 36 6 -53 11 0
-58 -83 33 28 -87 -32 73 -31 78 -102 0
-12 -41 -70 65 26 86 13 -1 36 0
-70 36 80 -38 -54 0
-84 69 48 -70 68 90 -82 -5 0
-85 64 -36 57 -39 -4 50 0
99 81 -2 -97 -85 -107 -40 35 -12 0
-6 89 41 1 62 88 95 -43 0
-6 49 62 -46 -22 0
70 -61 -90 84 0
65 52 59 -74 0
24 -91 19 0
108 0
